cliques=[{12,3,15,6,7,8,1,2,5,4,14,10,11,0,9,13},{12,3,15,6,7,8,1,2,5,4,14,10,11,0,9,13},{12,3,15,6,7,8,1,2,5,4,14,10,11,0,9,13},{60,107,83,118,3,131,262,32,95,217,200,184,170,48,19,159,73},{12,3,15,6,7,8,1,2,5,4,14,10,11,0,9,13},{12,3,15,6,7,8,1,2,5,4,14,10,11,0,9,13},{12,3,15,6,7,8,1,2,5,4,14,10,11,0,9,13},{12,3,15,6,7,8,1,2,5,4,14,10,11,0,9,13},{12,3,15,6,7,8,1,2,5,4,14,10,11,0,9,13},{12,3,15,6,7,8,1,2,5,4,14,10,11,0,9,13},{12,3,15,6,7,8,1,2,5,4,14,10,11,0,9,13},{239,100,161,111,88,65,189,149,54,207,265,38,221,138,280,24,11,252},{12,3,15,6,7,8,1,2,5,4,14,10,11,0,9,13},{12,3,15,6,7,8,1,2,5,4,14,10,11,0,9,13},{12,3,15,6,7,8,1,2,5,4,14,10,11,0,9,13},{12,3,15,6,7,8,1,2,5,4,14,10,11,0,9,13},{70,27,57,268,243,257,213,127,115,142,227,16,0,80,43,153},{91,116,166,1,229,17,270,181,71,28,143,196,155,245},{246,274,232,261,94,106,18,183,59,158,199,82,47,169},{60,107,83,118,3,131,262,32,95,217,200,184,170,48,19,159,73},{34,20,120,97,233,172,201,85,5,146,247,160,133,276,218},{134,98,6,202,186,86,121,35,108,234,75,21,248},{122,173,76,7,61,87,187,135,264,203,147,22,50,235},{175,110,220,136,23,205,188,63,237,52,278,250,9},{239,100,161,111,88,65,189,149,54,207,265,38,221,138,280,24,11,252},{191,177,12,112,56,77,209,67,140,223,25,267,162,254},{151,224,241,192,210,178,255,282,113,26,40,13},{33,34,42,27,30,32,39,37,35,38,29,31,28,41,40,36},{33,34,42,27,30,32,39,37,35,38,29,31,28,41,40,36},{33,34,42,27,30,32,39,37,35,38,29,31,28,41,40,36},{33,34,42,27,30,32,39,37,35,38,29,31,28,41,40,36},{33,34,42,27,30,32,39,37,35,38,29,31,28,41,40,36},{60,107,83,118,3,131,262,32,95,217,200,184,170,48,19,159,73},{33,34,42,27,30,32,39,37,35,38,29,31,28,41,40,36},{33,34,42,27,30,32,39,37,35,38,29,31,28,41,40,36},{33,34,42,27,30,32,39,37,35,38,29,31,28,41,40,36},{33,34,42,27,30,32,39,37,35,38,29,31,28,41,40,36},{33,34,42,27,30,32,39,37,35,38,29,31,28,41,40,36},{239,100,161,111,88,65,189,149,54,207,265,38,221,138,280,24,11,252},{33,34,42,27,30,32,39,37,35,38,29,31,28,41,40,36},{33,34,42,27,30,32,39,37,35,38,29,31,28,41,40,36},{33,34,42,27,30,32,39,37,35,38,29,31,28,41,40,36},{33,34,42,27,30,32,39,37,35,38,29,31,28,41,40,36},{70,27,57,268,243,257,213,127,115,142,227,16,0,80,43,153},{46,49,56,53,54,52,55,50,45,48,44,47,51,43},{81,58,272,167,92,30,215,197,2,156,259,45,104,130},{168,105,46,144,157,231,273,216,31,260,93,198},{246,274,232,261,94,106,18,183,59,158,199,82,47,169},{60,107,83,118,3,131,262,32,95,217,200,184,170,48,19,159,73},{84,33,49,119,132,185,171,145,263,74,275,4,96},{122,173,76,7,61,87,187,135,264,203,147,22,50,235},{174,99,109,148,236,8,219,62,123,204,249,51,36,277},{175,110,220,136,23,205,188,63,237,52,278,250,9},{46,49,56,53,54,52,55,50,45,48,44,47,51,43},{239,100,161,111,88,65,189,149,54,207,265,38,221,138,280,24,11,252},{240,266,39,101,125,139,176,208,55,150,222,66,281,190,253},{191,177,12,112,56,77,209,67,140,223,25,267,162,254},{60,58,57,61,62,63,68,67,59,65,64,66,69},{81,58,272,167,92,30,215,197,2,156,259,45,104,130},{246,274,232,261,94,106,18,183,59,158,199,82,47,169},{60,107,83,118,3,131,262,32,95,217,200,184,170,48,19,159,73},{122,173,76,7,61,87,187,135,264,203,147,22,50,235},{174,99,109,148,236,8,219,62,123,204,249,51,36,277},{175,110,220,136,23,205,188,63,237,52,278,250,9},{60,58,57,61,62,63,68,67,59,65,64,66,69},{239,100,161,111,88,65,189,149,54,207,265,38,221,138,280,24,11,252},{60,58,57,61,62,63,68,67,59,65,64,66,69},{191,177,12,112,56,77,209,67,140,223,25,267,162,254},{60,58,57,61,62,63,68,67,59,65,64,66,69},{42,15,102,79,226,141,90,256,179,242,212,69,164,194,284},{70,27,57,268,243,257,213,127,115,142,227,16,0,80,43,153},{91,116,166,1,229,17,270,181,71,28,143,196,155,245},{70,76,79,77,78,74,75,72,71,73},{60,107,83,118,3,131,262,32,95,217,200,184,170,48,19,159,73},{84,33,49,119,132,185,171,145,263,74,275,4,96},{134,98,6,202,186,86,121,35,108,234,75,21,248},{122,173,76,7,61,87,187,135,264,203,147,22,50,235},{191,177,12,112,56,77,209,67,140,223,25,267,162,254},{70,76,79,77,78,74,75,72,71,73},{42,15,102,79,226,141,90,256,179,242,212,69,164,194,284},{70,27,57,268,243,257,213,127,115,142,227,16,0,80,43,153},{81,58,272,167,92,30,215,197,2,156,259,45,104,130},{246,274,232,261,94,106,18,183,59,158,199,82,47,169},{60,107,83,118,3,131,262,32,95,217,200,184,170,48,19,159,73},{84,33,49,119,132,185,171,145,263,74,275,4,96},{34,20,120,97,233,172,201,85,5,146,247,160,133,276,218},{134,98,6,202,186,86,121,35,108,234,75,21,248},{122,173,76,7,61,87,187,135,264,203,147,22,50,235},{239,100,161,111,88,65,189,149,54,207,265,38,221,138,280,24,11,252},{84,81,83,87,86,90,85,88,82,89,80},{42,15,102,79,226,141,90,256,179,242,212,69,164,194,284},{99,100,98,91,92,102,94,97,101,95,93,96},{81,58,272,167,92,30,215,197,2,156,259,45,104,130},{99,100,98,91,92,102,94,97,101,95,93,96},{246,274,232,261,94,106,18,183,59,158,199,82,47,169},{60,107,83,118,3,131,262,32,95,217,200,184,170,48,19,159,73},{84,33,49,119,132,185,171,145,263,74,275,4,96},{34,20,120,97,233,172,201,85,5,146,247,160,133,276,218},{99,100,98,91,92,102,94,97,101,95,93,96},{99,100,98,91,92,102,94,97,101,95,93,96},{239,100,161,111,88,65,189,149,54,207,265,38,221,138,280,24,11,252},{99,100,98,91,92,102,94,97,101,95,93,96},{99,100,98,91,92,102,94,97,101,95,93,96},{105,107,109,110,112,106,111,103,108,113,104,114},{81,58,272,167,92,30,215,197,2,156,259,45,104,130},{105,107,109,110,112,106,111,103,108,113,104,114},{246,274,232,261,94,106,18,183,59,158,199,82,47,169},{60,107,83,118,3,131,262,32,95,217,200,184,170,48,19,159,73},{134,98,6,202,186,86,121,35,108,234,75,21,248},{174,99,109,148,236,8,219,62,123,204,249,51,36,277},{175,110,220,136,23,205,188,63,237,52,278,250,9},{239,100,161,111,88,65,189,149,54,207,265,38,221,138,280,24,11,252},{191,177,12,112,56,77,209,67,140,223,25,267,162,254},{105,107,109,110,112,106,111,103,108,113,104,114},{105,107,109,110,112,106,111,103,108,113,104,114},{117,122,118,116,120,119,121,125,123,126,124,115},{117,122,118,116,120,119,121,125,123,126,124,115},{117,122,118,116,120,119,121,125,123,126,124,115},{60,107,83,118,3,131,262,32,95,217,200,184,170,48,19,159,73},{84,33,49,119,132,185,171,145,263,74,275,4,96},{34,20,120,97,233,172,201,85,5,146,247,160,133,276,218},{134,98,6,202,186,86,121,35,108,234,75,21,248},{122,173,76,7,61,87,187,135,264,203,147,22,50,235},{174,99,109,148,236,8,219,62,123,204,249,51,36,277},{117,122,118,116,120,119,121,125,123,126,124,115},{117,122,118,116,120,119,121,125,123,126,124,115},{117,122,118,116,120,119,121,125,123,126,124,115},{134,131,136,137,129,132,141,135,139,140,138,128,127,133,130},{134,131,136,137,129,132,141,135,139,140,138,128,127,133,130},{134,131,136,137,129,132,141,135,139,140,138,128,127,133,130},{134,131,136,137,129,132,141,135,139,140,138,128,127,133,130},{60,107,83,118,3,131,262,32,95,217,200,184,170,48,19,159,73},{134,131,136,137,129,132,141,135,139,140,138,128,127,133,130},{134,131,136,137,129,132,141,135,139,140,138,128,127,133,130},{134,131,136,137,129,132,141,135,139,140,138,128,127,133,130},{134,131,136,137,129,132,141,135,139,140,138,128,127,133,130},{134,131,136,137,129,132,141,135,139,140,138,128,127,133,130},{134,131,136,137,129,132,141,135,139,140,138,128,127,133,130},{239,100,161,111,88,65,189,149,54,207,265,38,221,138,280,24,11,252},{134,131,136,137,129,132,141,135,139,140,138,128,127,133,130},{134,131,136,137,129,132,141,135,139,140,138,128,127,133,130},{134,131,136,137,129,132,141,135,139,140,138,128,127,133,130},{70,27,57,268,243,257,213,127,115,142,227,16,0,80,43,153},{91,116,166,1,229,17,270,181,71,28,143,196,155,245},{168,105,46,144,157,231,273,216,31,260,93,198},{84,33,49,119,132,185,171,145,263,74,275,4,96},{34,20,120,97,233,172,201,85,5,146,247,160,133,276,218},{122,173,76,7,61,87,187,135,264,203,147,22,50,235},{174,99,109,148,236,8,219,62,123,204,249,51,36,277},{239,100,161,111,88,65,189,149,54,207,265,38,221,138,280,24,11,252},{240,266,39,101,125,139,176,208,55,150,222,66,281,190,253},{151,148,144,145,146,149,147,152,150,143,142},{151,148,144,145,146,149,147,152,150,143,142},{70,27,57,268,243,257,213,127,115,142,227,16,0,80,43,153},{161,154,157,156,158,163,160,162,155,159,164,153},{91,116,166,1,229,17,270,181,71,28,143,196,155,245},{81,58,272,167,92,30,215,197,2,156,259,45,104,130},{168,105,46,144,157,231,273,216,31,260,93,198},{246,274,232,261,94,106,18,183,59,158,199,82,47,169},{60,107,83,118,3,131,262,32,95,217,200,184,170,48,19,159,73},{34,20,120,97,233,172,201,85,5,146,247,160,133,276,218},{239,100,161,111,88,65,189,149,54,207,265,38,221,138,280,24,11,252},{191,177,12,112,56,77,209,67,140,223,25,267,162,254},{283,78,68,152,211,126,14,163,89,41,225,114,193},{42,15,102,79,226,141,90,256,179,242,212,69,164,194,284},{168,174,175,177,173,167,166,171,172,176,179,178,165,170,169},{168,174,175,177,173,167,166,171,172,176,179,178,165,170,169},{168,174,175,177,173,167,166,171,172,176,179,178,165,170,169},{168,174,175,177,173,167,166,171,172,176,179,178,165,170,169},{168,174,175,177,173,167,166,171,172,176,179,178,165,170,169},{60,107,83,118,3,131,262,32,95,217,200,184,170,48,19,159,73},{168,174,175,177,173,167,166,171,172,176,179,178,165,170,169},{168,174,175,177,173,167,166,171,172,176,179,178,165,170,169},{168,174,175,177,173,167,166,171,172,176,179,178,165,170,169},{168,174,175,177,173,167,166,171,172,176,179,178,165,170,169},{168,174,175,177,173,167,166,171,172,176,179,178,165,170,169},{168,174,175,177,173,167,166,171,172,176,179,178,165,170,169},{168,174,175,177,173,167,166,171,172,176,179,178,165,170,169},{168,174,175,177,173,167,166,171,172,176,179,178,165,170,169},{168,174,175,177,173,167,166,171,172,176,179,178,165,170,169},{182,191,180,185,188,186,187,183,192,189,181,184,190,194,193},{182,191,180,185,188,186,187,183,192,189,181,184,190,194,193},{182,191,180,185,188,186,187,183,192,189,181,184,190,194,193},{182,191,180,185,188,186,187,183,192,189,181,184,190,194,193},{60,107,83,118,3,131,262,32,95,217,200,184,170,48,19,159,73},{182,191,180,185,188,186,187,183,192,189,181,184,190,194,193},{182,191,180,185,188,186,187,183,192,189,181,184,190,194,193},{182,191,180,185,188,186,187,183,192,189,181,184,190,194,193},{182,191,180,185,188,186,187,183,192,189,181,184,190,194,193},{239,100,161,111,88,65,189,149,54,207,265,38,221,138,280,24,11,252},{182,191,180,185,188,186,187,183,192,189,181,184,190,194,193},{182,191,180,185,188,186,187,183,192,189,181,184,190,194,193},{182,191,180,185,188,186,187,183,192,189,181,184,190,194,193},{182,191,180,185,188,186,187,183,192,189,181,184,190,194,193},{182,191,180,185,188,186,187,183,192,189,181,184,190,194,193},{202,205,197,209,201,203,208,207,199,210,211,204,212,206,196,200,195,198},{202,205,197,209,201,203,208,207,199,210,211,204,212,206,196,200,195,198},{81,58,272,167,92,30,215,197,2,156,259,45,104,130},{202,205,197,209,201,203,208,207,199,210,211,204,212,206,196,200,195,198},{246,274,232,261,94,106,18,183,59,158,199,82,47,169},{60,107,83,118,3,131,262,32,95,217,200,184,170,48,19,159,73},{202,205,197,209,201,203,208,207,199,210,211,204,212,206,196,200,195,198},{202,205,197,209,201,203,208,207,199,210,211,204,212,206,196,200,195,198},{122,173,76,7,61,87,187,135,264,203,147,22,50,235},{202,205,197,209,201,203,208,207,199,210,211,204,212,206,196,200,195,198},{202,205,197,209,201,203,208,207,199,210,211,204,212,206,196,200,195,198},{202,205,197,209,201,203,208,207,199,210,211,204,212,206,196,200,195,198},{239,100,161,111,88,65,189,149,54,207,265,38,221,138,280,24,11,252},{202,205,197,209,201,203,208,207,199,210,211,204,212,206,196,200,195,198},{202,205,197,209,201,203,208,207,199,210,211,204,212,206,196,200,195,198},{202,205,197,209,201,203,208,207,199,210,211,204,212,206,196,200,195,198},{202,205,197,209,201,203,208,207,199,210,211,204,212,206,196,200,195,198},{202,205,197,209,201,203,208,207,199,210,211,204,212,206,196,200,195,198},{224,220,215,226,214,219,216,217,221,223,213,222,225,218},{224,220,215,226,214,219,216,217,221,223,213,222,225,218},{81,58,272,167,92,30,215,197,2,156,259,45,104,130},{224,220,215,226,214,219,216,217,221,223,213,222,225,218},{60,107,83,118,3,131,262,32,95,217,200,184,170,48,19,159,73},{34,20,120,97,233,172,201,85,5,146,247,160,133,276,218},{174,99,109,148,236,8,219,62,123,204,249,51,36,277},{175,110,220,136,23,205,188,63,237,52,278,250,9},{239,100,161,111,88,65,189,149,54,207,265,38,221,138,280,24,11,252},{224,220,215,226,214,219,216,217,221,223,213,222,225,218},{191,177,12,112,56,77,209,67,140,223,25,267,162,254},{224,220,215,226,214,219,216,217,221,223,213,222,225,218},{224,220,215,226,214,219,216,217,221,223,213,222,225,218},{42,15,102,79,226,141,90,256,179,242,212,69,164,194,284},{239,232,240,236,228,238,231,233,241,229,234,237,242,230,227,235},{239,232,240,236,228,238,231,233,241,229,234,237,242,230,227,235},{239,232,240,236,228,238,231,233,241,229,234,237,242,230,227,235},{239,232,240,236,228,238,231,233,241,229,234,237,242,230,227,235},{239,232,240,236,228,238,231,233,241,229,234,237,242,230,227,235},{239,232,240,236,228,238,231,233,241,229,234,237,242,230,227,235},{239,232,240,236,228,238,231,233,241,229,234,237,242,230,227,235},{239,232,240,236,228,238,231,233,241,229,234,237,242,230,227,235},{239,232,240,236,228,238,231,233,241,229,234,237,242,230,227,235},{239,232,240,236,228,238,231,233,241,229,234,237,242,230,227,235},{239,232,240,236,228,238,231,233,241,229,234,237,242,230,227,235},{239,232,240,236,228,238,231,233,241,229,234,237,242,230,227,235},{239,232,240,236,228,238,231,233,241,229,234,237,242,230,227,235},{239,232,240,236,228,238,231,233,241,229,234,237,242,230,227,235},{239,232,240,236,228,238,231,233,241,229,234,237,242,230,227,235},{239,232,240,236,228,238,231,233,241,229,234,237,242,230,227,235},{70,27,57,268,243,257,213,127,115,142,227,16,0,80,43,153},{246,251,244,256,243,247,248,255,254,250,249,252,253,245},{91,116,166,1,229,17,270,181,71,28,143,196,155,245},{246,274,232,261,94,106,18,183,59,158,199,82,47,169},{34,20,120,97,233,172,201,85,5,146,247,160,133,276,218},{134,98,6,202,186,86,121,35,108,234,75,21,248},{174,99,109,148,236,8,219,62,123,204,249,51,36,277},{175,110,220,136,23,205,188,63,237,52,278,250,9},{246,251,244,256,243,247,248,255,254,250,249,252,253,245},{239,100,161,111,88,65,189,149,54,207,265,38,221,138,280,24,11,252},{240,266,39,101,125,139,176,208,55,150,222,66,281,190,253},{191,177,12,112,56,77,209,67,140,223,25,267,162,254},{246,251,244,256,243,247,248,255,254,250,249,252,253,245},{42,15,102,79,226,141,90,256,179,242,212,69,164,194,284},{70,27,57,268,243,257,213,127,115,142,227,16,0,80,43,153},{261,262,266,263,264,258,265,257,260,267,259},{81,58,272,167,92,30,215,197,2,156,259,45,104,130},{168,105,46,144,157,231,273,216,31,260,93,198},{246,274,232,261,94,106,18,183,59,158,199,82,47,169},{60,107,83,118,3,131,262,32,95,217,200,184,170,48,19,159,73},{84,33,49,119,132,185,171,145,263,74,275,4,96},{122,173,76,7,61,87,187,135,264,203,147,22,50,235},{239,100,161,111,88,65,189,149,54,207,265,38,221,138,280,24,11,252},{240,266,39,101,125,139,176,208,55,150,222,66,281,190,253},{191,177,12,112,56,77,209,67,140,223,25,267,162,254},{274,272,271,283,268,273,275,270,280,281,282,278,269,276,277,279,284},{274,272,271,283,268,273,275,270,280,281,282,278,269,276,277,279,284},{274,272,271,283,268,273,275,270,280,281,282,278,269,276,277,279,284},{274,272,271,283,268,273,275,270,280,281,282,278,269,276,277,279,284},{81,58,272,167,92,30,215,197,2,156,259,45,104,130},{274,272,271,283,268,273,275,270,280,281,282,278,269,276,277,279,284},{246,274,232,261,94,106,18,183,59,158,199,82,47,169},{84,33,49,119,132,185,171,145,263,74,275,4,96},{34,20,120,97,233,172,201,85,5,146,247,160,133,276,218},{174,99,109,148,236,8,219,62,123,204,249,51,36,277},{274,272,271,283,268,273,275,270,280,281,282,278,269,276,277,279,284},{274,272,271,283,268,273,275,270,280,281,282,278,269,276,277,279,284},{239,100,161,111,88,65,189,149,54,207,265,38,221,138,280,24,11,252},{274,272,271,283,268,273,275,270,280,281,282,278,269,276,277,279,284},{274,272,271,283,268,273,275,270,280,281,282,278,269,276,277,279,284},{274,272,271,283,268,273,275,270,280,281,282,278,269,276,277,279,284},{274,272,271,283,268,273,275,270,280,281,282,278,269,276,277,279,284}];
nr_cliques=285;
